(set-logic HORN)
(declare-datatypes ((Bool_275 0)) (((false_275 ) (true_275 ))))
(declare-fun diseqBool_130 (Bool_275 Bool_275) Bool)
(declare-fun isfalse_130 (Bool_275) Bool)
(declare-fun istrue_130 (Bool_275) Bool)
(assert (isfalse_130 false_275))
(assert (istrue_130 true_275))
(assert (diseqBool_130 false_275 true_275))
(assert (diseqBool_130 true_275 false_275))
(declare-fun and_275 (Bool_275 Bool_275 Bool_275) Bool)
(declare-fun or_281 (Bool_275 Bool_275 Bool_275) Bool)
(declare-fun hence_275 (Bool_275 Bool_275 Bool_275) Bool)
(declare-fun not_279 (Bool_275 Bool_275) Bool)
(assert (and_275 false_275 false_275 false_275))
(assert (and_275 false_275 true_275 false_275))
(assert (and_275 false_275 false_275 true_275))
(assert (and_275 true_275 true_275 true_275))
(assert (or_281 false_275 false_275 false_275))
(assert (or_281 true_275 true_275 false_275))
(assert (or_281 true_275 false_275 true_275))
(assert (or_281 true_275 true_275 true_275))
(assert (hence_275 true_275 false_275 false_275))
(assert (hence_275 false_275 true_275 false_275))
(assert (hence_275 true_275 false_275 true_275))
(assert (hence_275 true_275 true_275 true_275))
(assert (not_279 true_275 false_275))
(assert (not_279 false_275 true_275))
(declare-datatypes ((Nat_465 0)) (((zero_120 ) (succ_117 (p_333 Nat_465)))))
(declare-fun diseqNat_465 (Nat_465 Nat_465) Bool)
(declare-fun p_334 (Nat_465 Nat_465) Bool)
(declare-fun iszero_117 (Nat_465) Bool)
(declare-fun issucc_117 (Nat_465) Bool)
(assert (forall ((x_50631 Nat_465))
	(p_334 x_50631 (succ_117 x_50631))))
(assert (iszero_117 zero_120))
(assert (forall ((x_50633 Nat_465))
	(issucc_117 (succ_117 x_50633))))
(assert (forall ((x_50634 Nat_465))
	(diseqNat_465 zero_120 (succ_117 x_50634))))
(assert (forall ((x_50635 Nat_465))
	(diseqNat_465 (succ_117 x_50635) zero_120)))
(assert (forall ((x_50636 Nat_465) (x_50637 Nat_465))
	(=> (diseqNat_465 x_50636 x_50637)
	    (diseqNat_465 (succ_117 x_50636) (succ_117 x_50637)))))
(declare-fun leq_45 (Bool_275 Nat_465 Nat_465) Bool)
(assert (forall ((x_50618 Bool_275) (x_50615 Nat_465) (z_1659 Nat_465))
	(=> (leq_45 x_50618 z_1659 x_50615)
	    (leq_45 x_50618 (succ_117 z_1659) (succ_117 x_50615)))))
(assert (forall ((z_1659 Nat_465))
	(leq_45 false_275 (succ_117 z_1659) zero_120)))
(assert (forall ((y_1861 Nat_465))
	(leq_45 true_275 zero_120 y_1861)))
(declare-fun geq_2 (Bool_275 Nat_465 Nat_465) Bool)
(assert (forall ((x_50622 Bool_275) (x_50616 Nat_465) (y_1862 Nat_465))
	(=> (leq_45 x_50622 y_1862 x_50616)
	    (geq_2 x_50622 x_50616 y_1862))))
(assert (forall ((x_50617 Nat_465) (y_1863 Nat_465) (z_1660 Nat_465))
	(=>	(and true
			(geq_2 true_275 x_50617 y_1863)
			(geq_2 true_275 y_1863 z_1660)
			(geq_2 false_275 x_50617 z_1660))
		false)))
(check-sat)
